(set-logic HORN)
(set-info :source |
    Benchmark: C_VC
    Output by Princess (http://www.philipp.ruemmer.org/princess.shtml)
|)
(set-info :status sat)
(declare-fun inv_main29 (Int Int Int Int Int Int Int Int Int Int Int Int) Bool)
(declare-fun inv_main4 (Int Int Int Int Int Int Int Int Int Int Int Int) Bool)
(declare-fun inv_main7 (Int Int Int Int Int Int Int Int Int Int Int Int) Bool)
(assert (inv_main4 20000001 0 0 0 0 0 0 0 0 0 0 0))
(assert (forall ((var0 Int) (var1 Int) (var2 Int) (var3 Int) (var4 Int) (var5 Int) (var6 Int) (var7 Int) (var8 Int) (var9 Int) (var10 Int) (var11 Int)) (or (not (inv_main29 var11 var10 var9 var8 var7 var6 var5 var4 var3 var2 var1 var0)) (inv_main7 var11 var10 var9 var8 var7 var6 var5 var4 var3 var2 var1 var0))))
(assert (forall ((var0 Int) (var1 Int) (var2 Int) (var3 Int) (var4 Int) (var5 Int) (var6 Int) (var7 Int) (var8 Int) (var9 Int) (var10 Int) (var11 Int) (var12 Int)) (or (not (and (inv_main4 var12 var11 var10 var9 var8 var7 var6 var5 var4 var3 var2 var1) (<= 0 (+ var12 (* (- 1) var0))))) (inv_main7 var12 var0 var10 var9 var8 var7 var6 var5 var4 var3 var2 var1))))
(assert (forall ((var0 Int) (var1 Int) (var2 Int) (var3 Int) (var4 Int) (var5 Int) (var6 Int) (var7 Int) (var8 Int) (var9 Int) (var10 Int) (var11 Int) (var12 Int) (var13 Int)) (or (not (and (inv_main7 var11 var10 var9 var8 var7 var6 var5 var4 var3 var2 var1 var0) (and (and (and (and (and (and (<= 0 (+ (+ 9 (* (- 1) var12)) (- 1))) (<= 0 (+ (+ 9 (* 1 var12)) (- 1)))) (or (not (<= 0 (+ var12 (- 1)))) (<= 0 (+ var6 (- 1))))) (or (not (<= 0 (+ (* (- 1) var12) (- 1)))) (<= 0 (+ (* (- 1) var6) (- 1))))) (= var6 (+ (* 9 var13) var12))) (= var12 0)) (<= 0 (+ (+ var10 (* (- 1) var6)) (- 1)))))) (inv_main29 var11 var10 var9 var8 var7 (+ var6 1) var5 var4 var3 var2 var1 (+ var0 1)))))
(assert (forall ((var0 Int) (var1 Int) (var2 Int) (var3 Int) (var4 Int) (var5 Int) (var6 Int) (var7 Int) (var8 Int) (var9 Int) (var10 Int) (var11 Int) (var12 Int) (var13 Int) (var14 Int) (var15 Int)) (or (not (and (inv_main7 var11 var10 var9 var8 var7 var6 var5 var4 var3 var2 var1 var0) (and (and (and (and (and (and (<= 0 (+ (+ 8 (* (- 1) var12)) (- 1))) (<= 0 (+ (+ 8 (* 1 var12)) (- 1)))) (or (not (<= 0 (+ var12 (- 1)))) (<= 0 (+ var6 (- 1))))) (or (not (<= 0 (+ (* (- 1) var12) (- 1)))) (<= 0 (+ (* (- 1) var6) (- 1))))) (= var6 (+ (* 8 var13) var12))) (= var12 0)) (and (not (or (not (and (and (and (and (<= 0 (+ (+ 9 (* (- 1) var14)) (- 1))) (<= 0 (+ (+ 9 (* 1 var14)) (- 1)))) (or (not (<= 0 (+ var14 (- 1)))) (<= 0 (+ var6 (- 1))))) (or (not (<= 0 (+ (* (- 1) var14) (- 1)))) (<= 0 (+ (* (- 1) var6) (- 1))))) (= var6 (+ (* 9 var15) var14)))) (= var14 0))) (<= 0 (+ (+ var10 (* (- 1) var6)) (- 1))))))) (inv_main29 var11 var10 var9 var8 var7 (+ var6 1) var5 var4 var3 var2 (+ var1 1) var0))))
(assert (forall ((var0 Int) (var1 Int) (var2 Int) (var3 Int) (var4 Int) (var5 Int) (var6 Int) (var7 Int) (var8 Int) (var9 Int) (var10 Int) (var11 Int) (var12 Int) (var13 Int) (var14 Int) (var15 Int) (var16 Int) (var17 Int)) (or (not (and (inv_main7 var11 var10 var9 var8 var7 var6 var5 var4 var3 var2 var1 var0) (and (and (and (and (and (and (<= 0 (+ (+ 7 (* (- 1) var12)) (- 1))) (<= 0 (+ (+ 7 (* 1 var12)) (- 1)))) (or (not (<= 0 (+ var12 (- 1)))) (<= 0 (+ var6 (- 1))))) (or (not (<= 0 (+ (* (- 1) var12) (- 1)))) (<= 0 (+ (* (- 1) var6) (- 1))))) (= var6 (+ (* 7 var13) var12))) (= var12 0)) (and (not (or (not (and (and (and (and (<= 0 (+ (+ 8 (* (- 1) var14)) (- 1))) (<= 0 (+ (+ 8 (* 1 var14)) (- 1)))) (or (not (<= 0 (+ var14 (- 1)))) (<= 0 (+ var6 (- 1))))) (or (not (<= 0 (+ (* (- 1) var14) (- 1)))) (<= 0 (+ (* (- 1) var6) (- 1))))) (= var6 (+ (* 8 var15) var14)))) (= var14 0))) (and (not (or (not (and (and (and (and (<= 0 (+ (+ 9 (* (- 1) var16)) (- 1))) (<= 0 (+ (+ 9 (* 1 var16)) (- 1)))) (or (not (<= 0 (+ var16 (- 1)))) (<= 0 (+ var6 (- 1))))) (or (not (<= 0 (+ (* (- 1) var16) (- 1)))) (<= 0 (+ (* (- 1) var6) (- 1))))) (= var6 (+ (* 9 var17) var16)))) (= var16 0))) (<= 0 (+ (+ var10 (* (- 1) var6)) (- 1)))))))) (inv_main29 var11 var10 var9 var8 var7 (+ var6 1) (+ var5 1) var4 var3 var2 var1 var0))))
(assert (forall ((var0 Int) (var1 Int) (var2 Int) (var3 Int) (var4 Int) (var5 Int) (var6 Int) (var7 Int) (var8 Int) (var9 Int) (var10 Int) (var11 Int) (var12 Int) (var13 Int) (var14 Int) (var15 Int) (var16 Int) (var17 Int) (var18 Int) (var19 Int)) (or (not (and (inv_main7 var11 var10 var9 var8 var7 var6 var5 var4 var3 var2 var1 var0) (and (and (and (and (and (and (<= 0 (+ (+ 6 (* (- 1) var12)) (- 1))) (<= 0 (+ (+ 6 (* 1 var12)) (- 1)))) (or (not (<= 0 (+ var12 (- 1)))) (<= 0 (+ var6 (- 1))))) (or (not (<= 0 (+ (* (- 1) var12) (- 1)))) (<= 0 (+ (* (- 1) var6) (- 1))))) (= var6 (+ (* 6 var13) var12))) (= var12 0)) (and (not (or (not (and (and (and (and (<= 0 (+ (+ 7 (* (- 1) var14)) (- 1))) (<= 0 (+ (+ 7 (* 1 var14)) (- 1)))) (or (not (<= 0 (+ var14 (- 1)))) (<= 0 (+ var6 (- 1))))) (or (not (<= 0 (+ (* (- 1) var14) (- 1)))) (<= 0 (+ (* (- 1) var6) (- 1))))) (= var6 (+ (* 7 var15) var14)))) (= var14 0))) (and (not (or (not (and (and (and (and (<= 0 (+ (+ 8 (* (- 1) var16)) (- 1))) (<= 0 (+ (+ 8 (* 1 var16)) (- 1)))) (or (not (<= 0 (+ var16 (- 1)))) (<= 0 (+ var6 (- 1))))) (or (not (<= 0 (+ (* (- 1) var16) (- 1)))) (<= 0 (+ (* (- 1) var6) (- 1))))) (= var6 (+ (* 8 var17) var16)))) (= var16 0))) (and (not (or (not (and (and (and (and (<= 0 (+ (+ 9 (* (- 1) var18)) (- 1))) (<= 0 (+ (+ 9 (* 1 var18)) (- 1)))) (or (not (<= 0 (+ var18 (- 1)))) (<= 0 (+ var6 (- 1))))) (or (not (<= 0 (+ (* (- 1) var18) (- 1)))) (<= 0 (+ (* (- 1) var6) (- 1))))) (= var6 (+ (* 9 var19) var18)))) (= var18 0))) (<= 0 (+ (+ var10 (* (- 1) var6)) (- 1))))))))) (inv_main29 var11 var10 var9 var8 var7 (+ var6 1) var5 (+ var4 1) var3 var2 var1 var0))))
(assert (forall ((var0 Int) (var1 Int) (var2 Int) (var3 Int) (var4 Int) (var5 Int) (var6 Int) (var7 Int) (var8 Int) (var9 Int) (var10 Int) (var11 Int) (var12 Int) (var13 Int) (var14 Int) (var15 Int) (var16 Int) (var17 Int) (var18 Int) (var19 Int) (var20 Int) (var21 Int)) (or (not (and (inv_main7 var11 var10 var9 var8 var7 var6 var5 var4 var3 var2 var1 var0) (and (and (and (and (and (and (<= 0 (+ (+ 5 (* (- 1) var12)) (- 1))) (<= 0 (+ (+ 5 (* 1 var12)) (- 1)))) (or (not (<= 0 (+ var12 (- 1)))) (<= 0 (+ var6 (- 1))))) (or (not (<= 0 (+ (* (- 1) var12) (- 1)))) (<= 0 (+ (* (- 1) var6) (- 1))))) (= var6 (+ (* 5 var13) var12))) (= var12 0)) (and (not (or (not (and (and (and (and (<= 0 (+ (+ 6 (* (- 1) var14)) (- 1))) (<= 0 (+ (+ 6 (* 1 var14)) (- 1)))) (or (not (<= 0 (+ var14 (- 1)))) (<= 0 (+ var6 (- 1))))) (or (not (<= 0 (+ (* (- 1) var14) (- 1)))) (<= 0 (+ (* (- 1) var6) (- 1))))) (= var6 (+ (* 6 var15) var14)))) (= var14 0))) (and (not (or (not (and (and (and (and (<= 0 (+ (+ 7 (* (- 1) var16)) (- 1))) (<= 0 (+ (+ 7 (* 1 var16)) (- 1)))) (or (not (<= 0 (+ var16 (- 1)))) (<= 0 (+ var6 (- 1))))) (or (not (<= 0 (+ (* (- 1) var16) (- 1)))) (<= 0 (+ (* (- 1) var6) (- 1))))) (= var6 (+ (* 7 var17) var16)))) (= var16 0))) (and (not (or (not (and (and (and (and (<= 0 (+ (+ 8 (* (- 1) var18)) (- 1))) (<= 0 (+ (+ 8 (* 1 var18)) (- 1)))) (or (not (<= 0 (+ var18 (- 1)))) (<= 0 (+ var6 (- 1))))) (or (not (<= 0 (+ (* (- 1) var18) (- 1)))) (<= 0 (+ (* (- 1) var6) (- 1))))) (= var6 (+ (* 8 var19) var18)))) (= var18 0))) (and (not (or (not (and (and (and (and (<= 0 (+ (+ 9 (* (- 1) var20)) (- 1))) (<= 0 (+ (+ 9 (* 1 var20)) (- 1)))) (or (not (<= 0 (+ var20 (- 1)))) (<= 0 (+ var6 (- 1))))) (or (not (<= 0 (+ (* (- 1) var20) (- 1)))) (<= 0 (+ (* (- 1) var6) (- 1))))) (= var6 (+ (* 9 var21) var20)))) (= var20 0))) (<= 0 (+ (+ var10 (* (- 1) var6)) (- 1)))))))))) (inv_main29 var11 var10 var9 var8 var7 (+ var6 1) var5 var4 (+ var3 1) var2 var1 var0))))
(assert (forall ((var0 Int) (var1 Int) (var2 Int) (var3 Int) (var4 Int) (var5 Int) (var6 Int) (var7 Int) (var8 Int) (var9 Int) (var10 Int) (var11 Int) (var12 Int) (var13 Int) (var14 Int) (var15 Int) (var16 Int) (var17 Int) (var18 Int) (var19 Int) (var20 Int) (var21 Int) (var22 Int) (var23 Int)) (or (not (and (inv_main7 var11 var10 var9 var8 var7 var6 var5 var4 var3 var2 var1 var0) (and (and (and (and (and (and (<= 0 (+ (+ 4 (* (- 1) var12)) (- 1))) (<= 0 (+ (+ 4 (* 1 var12)) (- 1)))) (or (not (<= 0 (+ var12 (- 1)))) (<= 0 (+ var6 (- 1))))) (or (not (<= 0 (+ (* (- 1) var12) (- 1)))) (<= 0 (+ (* (- 1) var6) (- 1))))) (= var6 (+ (* 4 var13) var12))) (= var12 0)) (and (not (or (not (and (and (and (and (<= 0 (+ (+ 5 (* (- 1) var14)) (- 1))) (<= 0 (+ (+ 5 (* 1 var14)) (- 1)))) (or (not (<= 0 (+ var14 (- 1)))) (<= 0 (+ var6 (- 1))))) (or (not (<= 0 (+ (* (- 1) var14) (- 1)))) (<= 0 (+ (* (- 1) var6) (- 1))))) (= var6 (+ (* 5 var15) var14)))) (= var14 0))) (and (not (or (not (and (and (and (and (<= 0 (+ (+ 6 (* (- 1) var16)) (- 1))) (<= 0 (+ (+ 6 (* 1 var16)) (- 1)))) (or (not (<= 0 (+ var16 (- 1)))) (<= 0 (+ var6 (- 1))))) (or (not (<= 0 (+ (* (- 1) var16) (- 1)))) (<= 0 (+ (* (- 1) var6) (- 1))))) (= var6 (+ (* 6 var17) var16)))) (= var16 0))) (and (not (or (not (and (and (and (and (<= 0 (+ (+ 7 (* (- 1) var18)) (- 1))) (<= 0 (+ (+ 7 (* 1 var18)) (- 1)))) (or (not (<= 0 (+ var18 (- 1)))) (<= 0 (+ var6 (- 1))))) (or (not (<= 0 (+ (* (- 1) var18) (- 1)))) (<= 0 (+ (* (- 1) var6) (- 1))))) (= var6 (+ (* 7 var19) var18)))) (= var18 0))) (and (not (or (not (and (and (and (and (<= 0 (+ (+ 8 (* (- 1) var20)) (- 1))) (<= 0 (+ (+ 8 (* 1 var20)) (- 1)))) (or (not (<= 0 (+ var20 (- 1)))) (<= 0 (+ var6 (- 1))))) (or (not (<= 0 (+ (* (- 1) var20) (- 1)))) (<= 0 (+ (* (- 1) var6) (- 1))))) (= var6 (+ (* 8 var21) var20)))) (= var20 0))) (and (not (or (not (and (and (and (and (<= 0 (+ (+ 9 (* (- 1) var22)) (- 1))) (<= 0 (+ (+ 9 (* 1 var22)) (- 1)))) (or (not (<= 0 (+ var22 (- 1)))) (<= 0 (+ var6 (- 1))))) (or (not (<= 0 (+ (* (- 1) var22) (- 1)))) (<= 0 (+ (* (- 1) var6) (- 1))))) (= var6 (+ (* 9 var23) var22)))) (= var22 0))) (<= 0 (+ (+ var10 (* (- 1) var6)) (- 1))))))))))) (inv_main29 var11 var10 var9 var8 var7 (+ var6 1) var5 var4 var3 (+ var2 1) var1 var0))))
(assert (forall ((var0 Int) (var1 Int) (var2 Int) (var3 Int) (var4 Int) (var5 Int) (var6 Int) (var7 Int) (var8 Int) (var9 Int) (var10 Int) (var11 Int) (var12 Int) (var13 Int) (var14 Int) (var15 Int) (var16 Int) (var17 Int) (var18 Int) (var19 Int) (var20 Int) (var21 Int) (var22 Int) (var23 Int) (var24 Int) (var25 Int)) (or (not (and (inv_main7 var11 var10 var9 var8 var7 var6 var5 var4 var3 var2 var1 var0) (and (and (and (and (and (and (<= 0 (+ (+ 3 (* (- 1) var12)) (- 1))) (<= 0 (+ (+ 3 (* 1 var12)) (- 1)))) (or (not (<= 0 (+ var12 (- 1)))) (<= 0 (+ var6 (- 1))))) (or (not (<= 0 (+ (* (- 1) var12) (- 1)))) (<= 0 (+ (* (- 1) var6) (- 1))))) (= var6 (+ (* 3 var13) var12))) (= var12 0)) (and (not (or (not (and (and (and (and (<= 0 (+ (+ 4 (* (- 1) var14)) (- 1))) (<= 0 (+ (+ 4 (* 1 var14)) (- 1)))) (or (not (<= 0 (+ var14 (- 1)))) (<= 0 (+ var6 (- 1))))) (or (not (<= 0 (+ (* (- 1) var14) (- 1)))) (<= 0 (+ (* (- 1) var6) (- 1))))) (= var6 (+ (* 4 var15) var14)))) (= var14 0))) (and (not (or (not (and (and (and (and (<= 0 (+ (+ 5 (* (- 1) var16)) (- 1))) (<= 0 (+ (+ 5 (* 1 var16)) (- 1)))) (or (not (<= 0 (+ var16 (- 1)))) (<= 0 (+ var6 (- 1))))) (or (not (<= 0 (+ (* (- 1) var16) (- 1)))) (<= 0 (+ (* (- 1) var6) (- 1))))) (= var6 (+ (* 5 var17) var16)))) (= var16 0))) (and (not (or (not (and (and (and (and (<= 0 (+ (+ 6 (* (- 1) var18)) (- 1))) (<= 0 (+ (+ 6 (* 1 var18)) (- 1)))) (or (not (<= 0 (+ var18 (- 1)))) (<= 0 (+ var6 (- 1))))) (or (not (<= 0 (+ (* (- 1) var18) (- 1)))) (<= 0 (+ (* (- 1) var6) (- 1))))) (= var6 (+ (* 6 var19) var18)))) (= var18 0))) (and (not (or (not (and (and (and (and (<= 0 (+ (+ 7 (* (- 1) var20)) (- 1))) (<= 0 (+ (+ 7 (* 1 var20)) (- 1)))) (or (not (<= 0 (+ var20 (- 1)))) (<= 0 (+ var6 (- 1))))) (or (not (<= 0 (+ (* (- 1) var20) (- 1)))) (<= 0 (+ (* (- 1) var6) (- 1))))) (= var6 (+ (* 7 var21) var20)))) (= var20 0))) (and (not (or (not (and (and (and (and (<= 0 (+ (+ 8 (* (- 1) var22)) (- 1))) (<= 0 (+ (+ 8 (* 1 var22)) (- 1)))) (or (not (<= 0 (+ var22 (- 1)))) (<= 0 (+ var6 (- 1))))) (or (not (<= 0 (+ (* (- 1) var22) (- 1)))) (<= 0 (+ (* (- 1) var6) (- 1))))) (= var6 (+ (* 8 var23) var22)))) (= var22 0))) (and (not (or (not (and (and (and (and (<= 0 (+ (+ 9 (* (- 1) var24)) (- 1))) (<= 0 (+ (+ 9 (* 1 var24)) (- 1)))) (or (not (<= 0 (+ var24 (- 1)))) (<= 0 (+ var6 (- 1))))) (or (not (<= 0 (+ (* (- 1) var24) (- 1)))) (<= 0 (+ (* (- 1) var6) (- 1))))) (= var6 (+ (* 9 var25) var24)))) (= var24 0))) (<= 0 (+ (+ var10 (* (- 1) var6)) (- 1)))))))))))) (inv_main29 var11 var10 (+ var9 1) var8 var7 (+ var6 1) var5 var4 var3 var2 var1 var0))))
(assert (forall ((var0 Int) (var1 Int) (var2 Int) (var3 Int) (var4 Int) (var5 Int) (var6 Int) (var7 Int) (var8 Int) (var9 Int) (var10 Int) (var11 Int) (var12 Int) (var13 Int) (var14 Int) (var15 Int) (var16 Int) (var17 Int) (var18 Int) (var19 Int) (var20 Int) (var21 Int) (var22 Int) (var23 Int) (var24 Int) (var25 Int) (var26 Int) (var27 Int)) (or (not (and (inv_main7 var11 var10 var9 var8 var7 var6 var5 var4 var3 var2 var1 var0) (and (and (and (and (and (and (<= 0 (+ (+ 2 (* (- 1) var12)) (- 1))) (<= 0 (+ (+ 2 (* 1 var12)) (- 1)))) (or (not (<= 0 (+ var12 (- 1)))) (<= 0 (+ var6 (- 1))))) (or (not (<= 0 (+ (* (- 1) var12) (- 1)))) (<= 0 (+ (* (- 1) var6) (- 1))))) (= var6 (+ (* 2 var13) var12))) (= var12 0)) (and (not (or (not (and (and (and (and (<= 0 (+ (+ 3 (* (- 1) var14)) (- 1))) (<= 0 (+ (+ 3 (* 1 var14)) (- 1)))) (or (not (<= 0 (+ var14 (- 1)))) (<= 0 (+ var6 (- 1))))) (or (not (<= 0 (+ (* (- 1) var14) (- 1)))) (<= 0 (+ (* (- 1) var6) (- 1))))) (= var6 (+ (* 3 var15) var14)))) (= var14 0))) (and (not (or (not (and (and (and (and (<= 0 (+ (+ 4 (* (- 1) var16)) (- 1))) (<= 0 (+ (+ 4 (* 1 var16)) (- 1)))) (or (not (<= 0 (+ var16 (- 1)))) (<= 0 (+ var6 (- 1))))) (or (not (<= 0 (+ (* (- 1) var16) (- 1)))) (<= 0 (+ (* (- 1) var6) (- 1))))) (= var6 (+ (* 4 var17) var16)))) (= var16 0))) (and (not (or (not (and (and (and (and (<= 0 (+ (+ 5 (* (- 1) var18)) (- 1))) (<= 0 (+ (+ 5 (* 1 var18)) (- 1)))) (or (not (<= 0 (+ var18 (- 1)))) (<= 0 (+ var6 (- 1))))) (or (not (<= 0 (+ (* (- 1) var18) (- 1)))) (<= 0 (+ (* (- 1) var6) (- 1))))) (= var6 (+ (* 5 var19) var18)))) (= var18 0))) (and (not (or (not (and (and (and (and (<= 0 (+ (+ 6 (* (- 1) var20)) (- 1))) (<= 0 (+ (+ 6 (* 1 var20)) (- 1)))) (or (not (<= 0 (+ var20 (- 1)))) (<= 0 (+ var6 (- 1))))) (or (not (<= 0 (+ (* (- 1) var20) (- 1)))) (<= 0 (+ (* (- 1) var6) (- 1))))) (= var6 (+ (* 6 var21) var20)))) (= var20 0))) (and (not (or (not (and (and (and (and (<= 0 (+ (+ 7 (* (- 1) var22)) (- 1))) (<= 0 (+ (+ 7 (* 1 var22)) (- 1)))) (or (not (<= 0 (+ var22 (- 1)))) (<= 0 (+ var6 (- 1))))) (or (not (<= 0 (+ (* (- 1) var22) (- 1)))) (<= 0 (+ (* (- 1) var6) (- 1))))) (= var6 (+ (* 7 var23) var22)))) (= var22 0))) (and (not (or (not (and (and (and (and (<= 0 (+ (+ 8 (* (- 1) var24)) (- 1))) (<= 0 (+ (+ 8 (* 1 var24)) (- 1)))) (or (not (<= 0 (+ var24 (- 1)))) (<= 0 (+ var6 (- 1))))) (or (not (<= 0 (+ (* (- 1) var24) (- 1)))) (<= 0 (+ (* (- 1) var6) (- 1))))) (= var6 (+ (* 8 var25) var24)))) (= var24 0))) (and (not (or (not (and (and (and (and (<= 0 (+ (+ 9 (* (- 1) var26)) (- 1))) (<= 0 (+ (+ 9 (* 1 var26)) (- 1)))) (or (not (<= 0 (+ var26 (- 1)))) (<= 0 (+ var6 (- 1))))) (or (not (<= 0 (+ (* (- 1) var26) (- 1)))) (<= 0 (+ (* (- 1) var6) (- 1))))) (= var6 (+ (* 9 var27) var26)))) (= var26 0))) (<= 0 (+ (+ var10 (* (- 1) var6)) (- 1))))))))))))) (inv_main29 var11 var10 var9 var8 (+ var7 1) (+ var6 1) var5 var4 var3 var2 var1 var0))))
(assert (forall ((var0 Int) (var1 Int) (var2 Int) (var3 Int) (var4 Int) (var5 Int) (var6 Int) (var7 Int) (var8 Int) (var9 Int) (var10 Int) (var11 Int) (var12 Int) (var13 Int) (var14 Int) (var15 Int) (var16 Int) (var17 Int) (var18 Int) (var19 Int) (var20 Int) (var21 Int) (var22 Int) (var23 Int) (var24 Int) (var25 Int) (var26 Int) (var27 Int)) (or (not (and (inv_main7 var11 var10 var9 var8 var7 var6 var5 var4 var3 var2 var1 var0) (and (not (or (not (and (and (and (and (<= 0 (+ (+ 2 (* (- 1) var12)) (- 1))) (<= 0 (+ (+ 2 (* 1 var12)) (- 1)))) (or (not (<= 0 (+ var12 (- 1)))) (<= 0 (+ var6 (- 1))))) (or (not (<= 0 (+ (* (- 1) var12) (- 1)))) (<= 0 (+ (* (- 1) var6) (- 1))))) (= var6 (+ (* 2 var13) var12)))) (= var12 0))) (and (not (or (not (and (and (and (and (<= 0 (+ (+ 3 (* (- 1) var14)) (- 1))) (<= 0 (+ (+ 3 (* 1 var14)) (- 1)))) (or (not (<= 0 (+ var14 (- 1)))) (<= 0 (+ var6 (- 1))))) (or (not (<= 0 (+ (* (- 1) var14) (- 1)))) (<= 0 (+ (* (- 1) var6) (- 1))))) (= var6 (+ (* 3 var15) var14)))) (= var14 0))) (and (not (or (not (and (and (and (and (<= 0 (+ (+ 4 (* (- 1) var16)) (- 1))) (<= 0 (+ (+ 4 (* 1 var16)) (- 1)))) (or (not (<= 0 (+ var16 (- 1)))) (<= 0 (+ var6 (- 1))))) (or (not (<= 0 (+ (* (- 1) var16) (- 1)))) (<= 0 (+ (* (- 1) var6) (- 1))))) (= var6 (+ (* 4 var17) var16)))) (= var16 0))) (and (not (or (not (and (and (and (and (<= 0 (+ (+ 5 (* (- 1) var18)) (- 1))) (<= 0 (+ (+ 5 (* 1 var18)) (- 1)))) (or (not (<= 0 (+ var18 (- 1)))) (<= 0 (+ var6 (- 1))))) (or (not (<= 0 (+ (* (- 1) var18) (- 1)))) (<= 0 (+ (* (- 1) var6) (- 1))))) (= var6 (+ (* 5 var19) var18)))) (= var18 0))) (and (not (or (not (and (and (and (and (<= 0 (+ (+ 6 (* (- 1) var20)) (- 1))) (<= 0 (+ (+ 6 (* 1 var20)) (- 1)))) (or (not (<= 0 (+ var20 (- 1)))) (<= 0 (+ var6 (- 1))))) (or (not (<= 0 (+ (* (- 1) var20) (- 1)))) (<= 0 (+ (* (- 1) var6) (- 1))))) (= var6 (+ (* 6 var21) var20)))) (= var20 0))) (and (not (or (not (and (and (and (and (<= 0 (+ (+ 7 (* (- 1) var22)) (- 1))) (<= 0 (+ (+ 7 (* 1 var22)) (- 1)))) (or (not (<= 0 (+ var22 (- 1)))) (<= 0 (+ var6 (- 1))))) (or (not (<= 0 (+ (* (- 1) var22) (- 1)))) (<= 0 (+ (* (- 1) var6) (- 1))))) (= var6 (+ (* 7 var23) var22)))) (= var22 0))) (and (not (or (not (and (and (and (and (<= 0 (+ (+ 8 (* (- 1) var24)) (- 1))) (<= 0 (+ (+ 8 (* 1 var24)) (- 1)))) (or (not (<= 0 (+ var24 (- 1)))) (<= 0 (+ var6 (- 1))))) (or (not (<= 0 (+ (* (- 1) var24) (- 1)))) (<= 0 (+ (* (- 1) var6) (- 1))))) (= var6 (+ (* 8 var25) var24)))) (= var24 0))) (and (not (or (not (and (and (and (and (<= 0 (+ (+ 9 (* (- 1) var26)) (- 1))) (<= 0 (+ (+ 9 (* 1 var26)) (- 1)))) (or (not (<= 0 (+ var26 (- 1)))) (<= 0 (+ var6 (- 1))))) (or (not (<= 0 (+ (* (- 1) var26) (- 1)))) (<= 0 (+ (* (- 1) var6) (- 1))))) (= var6 (+ (* 9 var27) var26)))) (= var26 0))) (<= 0 (+ (+ var10 (* (- 1) var6)) (- 1))))))))))))) (inv_main29 var11 var10 var9 (+ var8 1) var7 (+ var6 1) var5 var4 var3 var2 var1 var0))))
(assert (forall ((var0 Int) (var1 Int) (var2 Int) (var3 Int) (var4 Int) (var5 Int) (var6 Int) (var7 Int) (var8 Int) (var9 Int) (var10 Int) (var11 Int)) (not (and (inv_main29 var11 var10 var9 var8 var7 var6 var5 var4 var3 var2 var1 var0) (not (= (+ (+ (+ (+ (+ (+ (+ (+ var9 var7) var8) var5) var4) var3) var2) var1) var0) var6))))))
(check-sat)
